c Output_time 26.03.2020 18:13:24_+0100 1585242804521877294
c ** Program information **
c program_name                          "QBRG_debug"
c version                               "0.3.20"
c date                                  "25.3.2020"
c gid_id                                "673970833836058123f633335630c185360d632e"
c author                                "Oliver Kullmann"
c url                                   "https://github.com/OKullmann/oklibrary/blob/master/Satisfiability/Transformers/Generators/Random/QBRG.cpp"
c ** Machine information **
c machine_name                          "chyna-Lenovo-G50-70"
c bogomips                              3791.08
c ** Compilation information **
c compiler_version                      "g++ 7.5.0"
c compilation_date                      "Mar_26_2020 11:16:30"
c compilation_options                   "--std=c++17 -pedantic -fmax-errors=5 -Wall -Wextra -g -D_GLIBCXX_DEBUG"
c NDEBUG                                0
c OPTIMIZE                              0
c ** Parameters **
c command-line                          "./QBRG_debug" "e40 a40 40" "475*1,1|2-2,1|3-3,1" "" "1,t" ""
c output                                "QuBlRaGe_120_475_1585242804506615151.qdimacs"
c options                               "filtered,renamed"
c num_quantifier_blocks                 3
c  quantifier_blocks                    1:e1-40 2:a41-80 3:e81-120
c num_clause-blocks                     1
c  clause-blocks                        475 * {1-40,1,1/2} | {41-80,1,1/2} | {81-120,1,1/2}
c num_e-seeds                           30+2=32
c  e-seeds                              1 0 1 0 4 120 2 40 1 40 0 40 1 475 3 1 1 1 1 2 2 2 1 1 2 3 3 1 1 2 1 1585242804506614398
p cnf 120 475
e 1 2 3 4 5 6 7 8 9 10 11 12 13 14 15 16 17 18 19 20 21 22 23 24 25 26 27 28 29 30 31 32 33 34 35 36 37 38 39 40 0
a 41 42 43 44 45 46 47 48 49 50 51 52 53 54 55 56 57 58 59 60 61 62 63 64 65 66 67 68 69 70 71 72 73 74 75 76 77 78 79 80 0
e 81 82 83 84 85 86 87 88 89 90 91 92 93 94 95 96 97 98 99 100 101 102 103 104 105 106 107 108 109 110 111 112 113 114 115 116 117 118 119 120 0
-17 -64 -81 0
3 -57 81 0
3 62 81 0
7 70 81 0
37 -78 81 0
-35 78 81 0
40 49 -82 0
40 51 -82 0
-16 54 -82 0
-27 65 -82 0
-26 67 -82 0
33 42 82 0
-23 -49 82 0
29 -56 82 0
24 71 82 0
-27 75 82 0
-25 76 82 0
20 48 -83 0
-7 -57 -83 0
-3 58 -83 0
33 -60 -83 0
-26 -61 -83 0
-32 69 -83 0
-5 -80 -83 0
2 80 -83 0
37 51 83 0
37 -53 83 0
-1 59 83 0
21 62 83 0
-29 62 83 0
30 -70 83 0
1 -76 83 0
-36 41 -84 0
6 46 -84 0
-2 48 -84 0
14 51 -84 0
-28 -44 84 0
18 -47 84 0
-9 -49 84 0
-28 54 84 0
-15 59 84 0
37 65 84 0
-36 67 84 0
-6 75 84 0
-35 75 84 0
-6 -52 -85 0
-5 -54 -85 0
-4 -67 -85 0
3 73 -85 0
32 42 85 0
6 55 85 0
-36 -62 85 0
-38 66 85 0
28 67 85 0
-22 73 85 0
-35 49 -86 0
-11 56 -86 0
-17 -62 -86 0
3 66 -86 0
26 66 -86 0
5 -70 -86 0
-38 75 -86 0
-28 -79 -86 0
21 44 86 0
5 -77 86 0
-7 -41 -87 0
34 -43 -87 0
-24 45 -87 0
8 -51 -87 0
21 57 -87 0
-12 -62 -87 0
-2 65 -87 0
-33 65 -87 0
-13 72 -87 0
-35 77 -87 0
-14 80 -87 0
-37 44 87 0
-40 51 87 0
40 -53 87 0
-7 -56 87 0
-13 57 87 0
-35 68 87 0
-14 -73 87 0
18 48 -88 0
24 -59 -88 0
-25 66 -88 0
16 47 88 0
-12 51 88 0
-12 -54 88 0
29 64 88 0
-15 -71 88 0
-26 -80 88 0
2 -45 -89 0
-18 -53 -89 0
-35 -72 -89 0
4 -48 89 0
-18 -50 89 0
-13 51 89 0
4 52 89 0
-27 -61 89 0
-17 -63 89 0
-2 64 89 0
-9 -66 89 0
-27 -66 89 0
21 -74 89 0
-31 -80 89 0
35 -48 -90 0
12 -50 -90 0
-31 62 -90 0
18 65 -90 0
39 65 -90 0
-23 -72 -90 0
28 -74 -90 0
19 -42 90 0
34 45 90 0
-20 -47 90 0
6 -54 90 0
35 73 90 0
-20 -50 -91 0
30 59 -91 0
-15 60 -91 0
39 -68 -91 0
4 -73 -91 0
12 -78 -91 0
35 -80 -91 0
-13 -57 91 0
-20 -61 91 0
26 -79 91 0
-25 49 -92 0
-4 62 -92 0
4 63 -92 0
-10 69 -92 0
-15 74 -92 0
38 -44 92 0
21 -45 92 0
-33 -45 92 0
-11 52 92 0
3 53 92 0
-31 -54 92 0
19 54 92 0
-30 60 92 0
-12 -69 92 0
3 75 92 0
-37 75 92 0
-34 60 -93 0
35 -47 93 0
-27 52 93 0
28 57 93 0
16 64 93 0
22 69 93 0
-8 -70 93 0
30 -74 93 0
-22 76 93 0
-10 -77 93 0
-21 79 93 0
-30 -53 -94 0
-19 67 -94 0
-1 71 -94 0
-3 47 94 0
-19 -49 94 0
13 -53 94 0
2 59 94 0
5 -60 94 0
39 62 94 0
14 63 94 0
-32 -64 94 0
29 69 94 0
24 -71 94 0
35 71 94 0
35 -41 -95 0
-39 -44 -95 0
15 45 -95 0
-28 46 -95 0
-2 -48 -95 0
14 48 -95 0
18 50 -95 0
-26 -55 -95 0
-16 -62 -95 0
13 62 -95 0
18 -66 -95 0
-34 -66 -95 0
35 70 -95 0
27 -72 -95 0
6 -77 -95 0
36 53 95 0
-16 61 95 0
18 -66 95 0
-32 -68 95 0
-39 -69 95 0
-22 -71 95 0
16 71 95 0
-7 72 95 0
-4 74 95 0
13 74 95 0
38 78 95 0
26 -45 -96 0
-13 57 -96 0
-18 46 96 0
27 51 96 0
-17 55 96 0
-39 55 96 0
5 -71 96 0
-16 -75 96 0
-40 -54 -97 0
22 60 -97 0
10 -66 -97 0
-27 -72 -97 0
-32 73 -97 0
35 -45 97 0
20 -50 97 0
39 50 97 0
-1 52 97 0
28 63 97 0
-37 -73 97 0
-10 52 -98 0
26 -58 -98 0
-36 79 -98 0
7 -44 98 0
-6 -45 98 0
39 46 98 0
34 -54 98 0
-28 57 98 0
30 -59 98 0
8 61 98 0
8 -67 98 0
30 -70 98 0
-35 74 98 0
-39 42 -99 0
-32 45 -99 0
-39 45 -99 0
-37 56 -99 0
-38 -61 -99 0
16 -67 -99 0
20 67 -99 0
39 -69 -99 0
23 -79 -99 0
29 42 99 0
-1 47 99 0
26 56 99 0
14 57 99 0
33 -70 99 0
-9 -76 99 0
20 77 99 0
29 55 -100 0
15 -65 -100 0
-29 71 -100 0
6 72 -100 0
-24 78 -100 0
-33 -43 100 0
-21 44 100 0
-9 -54 100 0
-6 -60 100 0
2 -65 100 0
-14 -78 100 0
-9 79 100 0
14 -45 -101 0
1 -52 -101 0
-31 -54 -101 0
-1 -63 -101 0
36 75 -101 0
-14 -45 101 0
-9 -48 101 0
20 -53 101 0
18 -55 101 0
13 -64 101 0
-3 65 101 0
-35 74 101 0
-19 56 -102 0
35 -60 -102 0
35 69 -102 0
-40 70 -102 0
-10 -75 -102 0
-18 75 -102 0
-33 77 -102 0
27 52 102 0
34 -62 102 0
15 -68 102 0
-8 48 -103 0
34 48 -103 0
40 50 -103 0
-12 -57 -103 0
19 -57 -103 0
29 -42 103 0
-15 44 103 0
-3 -50 103 0
8 -50 103 0
-7 -60 103 0
25 60 103 0
26 63 103 0
-35 -72 103 0
-38 -72 103 0
5 -48 -104 0
-30 51 -104 0
28 55 -104 0
1 -57 -104 0
35 64 -104 0
29 -79 -104 0
17 79 -104 0
-22 52 104 0
31 -63 104 0
-21 -68 104 0
28 -52 -105 0
17 53 -105 0
20 54 -105 0
18 57 -105 0
23 -58 -105 0
3 59 -105 0
-22 -66 -105 0
-19 69 -105 0
-37 41 105 0
-9 -46 105 0
-26 -55 105 0
-16 59 105 0
39 60 105 0
10 -72 105 0
23 41 -106 0
-2 61 -106 0
-32 69 -106 0
16 -74 -106 0
28 -77 -106 0
28 -42 106 0
15 45 106 0
32 -55 106 0
23 58 106 0
-36 75 106 0
-36 43 -107 0
-12 -63 -107 0
-11 64 -107 0
20 66 -107 0
-12 -72 -107 0
40 -73 -107 0
-32 77 -107 0
-27 42 107 0
5 -53 107 0
28 -61 107 0
-25 68 107 0
34 77 107 0
-26 79 107 0
31 -48 -108 0
29 -50 -108 0
-27 -60 -108 0
-15 -63 -108 0
36 66 -108 0
-22 67 -108 0
-39 79 -108 0
14 -48 108 0
-33 -74 108 0
-13 79 108 0
-9 53 -109 0
4 -66 -109 0
25 -79 -109 0
-10 -80 -109 0
-5 42 109 0
-27 43 109 0
39 46 109 0
-6 49 109 0
-27 56 109 0
29 59 109 0
-9 60 109 0
-33 -50 -110 0
22 -54 -110 0
-10 59 -110 0
-36 -77 -110 0
15 -80 -110 0
30 -62 110 0
39 -80 110 0
6 43 -111 0
39 68 -111 0
5 -74 -111 0
33 -44 111 0
-16 62 111 0
5 76 111 0
40 43 -112 0
29 -51 -112 0
-22 56 -112 0
-28 59 -112 0
-23 72 -112 0
-15 -46 112 0
-17 56 112 0
-1 69 112 0
6 -74 112 0
-34 75 112 0
8 -45 -113 0
-34 -45 -113 0
14 49 -113 0
-36 -51 -113 0
30 61 -113 0
-19 74 -113 0
1 -49 113 0
-14 -53 113 0
21 -65 113 0
39 -78 113 0
34 -45 -114 0
29 54 -114 0
-23 -57 -114 0
22 60 -114 0
21 70 -114 0
-15 72 -114 0
-37 80 -114 0
-29 45 114 0
-25 -49 114 0
-37 52 114 0
24 70 114 0
-19 -41 -115 0
-27 -44 -115 0
22 56 -115 0
1 -64 -115 0
-40 -73 -115 0
20 -79 -115 0
-26 41 115 0
-17 -45 115 0
24 -80 115 0
-3 -44 -116 0
-11 45 -116 0
-36 50 -116 0
-1 -56 -116 0
-20 64 -116 0
10 -69 -116 0
-10 71 -116 0
35 76 -116 0
24 -45 116 0
39 45 116 0
13 -63 116 0
20 -63 116 0
35 -79 116 0
-29 41 -117 0
39 47 -117 0
19 50 -117 0
34 59 -117 0
-33 -63 -117 0
3 66 -117 0
40 -72 -117 0
-29 76 -117 0
-31 -78 -117 0
-12 -80 -117 0
-27 43 117 0
20 -45 117 0
21 45 117 0
-24 -67 117 0
33 -67 117 0
18 -69 117 0
-22 78 117 0
-14 41 -118 0
-36 -42 -118 0
-31 -51 -118 0
-37 67 -118 0
24 77 -118 0
-33 -47 118 0
-19 53 118 0
-18 -61 118 0
30 62 118 0
-10 -66 118 0
-40 -67 118 0
25 -73 118 0
35 -74 118 0
20 75 118 0
-22 -47 -119 0
-14 49 -119 0
-27 -51 -119 0
-5 52 -119 0
3 -57 -119 0
-13 57 -119 0
-31 74 -119 0
-18 -66 119 0
-11 79 119 0
22 -54 -120 0
2 -57 -120 0
10 69 -120 0
24 73 -120 0
-23 42 120 0
-1 -46 120 0
-16 -55 120 0
23 -70 120 0
2 72 120 0
28 73 120 0
